# Objective value = 7.4848399999999529e+03
I_0_0 3057
I_0_1 4293
I_0_2 3.7030000000000268e+03
I_0_3 3.7469999999999882e+03
I_0_4 3695.00000000001
I_0_5 3.2330000000000159e+03
I_0_6 4.4690000000000182e+03
I_1_0 13
I_1_1 -4.7989390239422391e-14
I_1_2 1.3000000000000046e+01
I_1_3 13
I_1_4 -6.6900998629826347e-13
I_1_5 1.3000000000000675e+01
I_1_6 -6.6900998629826347e-13
I_2_0 32
I_2_1 1.6653345369377348e-15
I_2_2 3.1999999999999993e+01
I_2_3 3.1999999999998622e+01
I_2_4 1.4362527698906304e-12
I_2_5 3.2000000000000341e+01
I_2_6 -4.0545344859310717e-13
I_3_0 56
I_3_1 0
I_3_2 56
I_3_3 0
I_3_4 55.9999999999853
I_3_5 56
I_3_6 0
I_4_0 128
I_4_1 6.4000000000000014e+01
I_4_2 1.2800000000003476e+02
I_4_3 64
I_4_4 0
I_4_5 128
I_4_6 64
I_5_0 54
I_5_1 2.6999999999999126e+01
I_5_2 5.3999999999999993e+01
I_5_3 2.7000000000006573e+01
I_5_4 54
I_5_5 2.7000000000015724e+01
I_5_6 6.0729199446996063e-12
I_6_0 15
I_6_1 0
I_6_2 1.5000000000000004e+01
I_6_3 0
I_6_4 1.4999999999999980e+01
I_6_5 1.4999999999999961e+01
I_6_6 2.4980018054066022e-14
I_7_0 54
I_7_1 27
I_7_2 -6.1959326558280736e-12
I_7_3 5.4000000000006224e+01
I_7_4 27.0000000000062
I_7_5 5.3999999999998643e+01
I_7_6 2.6999999999999979e+01
I_8_0 25
I_8_1 0
I_8_2 25
I_8_3 2.4999999999999989e+01
I_8_4 1.1102230246251565e-14
I_8_5 2.4999999999999989e+01
I_8_6 1.1102230246251565e-14
I_9_0 19
I_9_1 0
I_9_2 1.8999999999999996e+01
I_9_3 1.9000000000000068e+01
I_9_4 -6.7237881928861043e-14
I_9_5 1.8999999999999446e+01
I_9_6 4.7849191750569944e-13
I_10_0 116
I_10_1 58
I_10_2 116
I_10_3 116
I_10_4 5.8000000000000142e+01
I_10_5 1.1599999999999986e+02
I_10_6 5.7999999999999858e+01
I_11_0 72
I_11_1 36
I_11_2 -9.9475983006414026e-14
I_11_3 7.2000000000000071e+01
I_11_4 7.2000000000000384e+01
I_11_5 3.5999999999994408e+01
I_11_6 -6.5367886972758278e-12
I_12_0 15
I_12_1 0
I_12_2 15
I_12_3 0
I_12_4 15
I_12_5 1.4999999999999535e+01
I_12_6 4.43239195346834e-13
I_13_0 35
I_13_1 0
I_13_2 3.4999999999999979e+01
I_13_3 0
I_13_4 35
I_13_5 3.4999999999998472e+01
I_13_6 1.5602714954384996e-12
I_14_0 36
I_14_1 1.7999999999999996e+01
I_14_2 3.6000000000000426e+01
I_14_3 1.8000000000000021e+01
I_14_4 36
I_14_5 1.8000000000001982e+01
I_14_6 -2.3440138718910930e-12
I_15_0 65
I_15_1 0
I_15_2 65
I_15_3 -9.6779030399811686e-14
I_15_4 65.0000000000001
I_15_5 6.4999999999999829e+01
I_15_6 1.1546319456101628e-13
I_16_0 82
I_16_1 4.1000000000000512e+01
I_16_2 8.2000000000000043e+01
I_16_3 4.0999999999999154e+01
I_16_4 82
I_16_5 4.0999999999999616e+01
I_16_6 -3.6859404417555197e-13
I_17_0 162
I_17_1 8.1000000000000043e+01
I_17_2 -1.8587797967484221e-11
I_17_3 162
I_17_4 81
I_17_5 162
I_17_6 81
I_18_0 54
I_18_1 2.8102520310824275e-15
I_18_2 54
I_18_3 2.8102520310824275e-15
I_18_4 54
I_18_5 5.3999999999997662e+01
I_18_6 2.3952856128677334e-12
I_19_0 78
I_19_1 3.3015257194790593e-14
I_19_2 7.7999999999999972e+01
I_19_3 3.3015257194790593e-14
I_19_4 7.7999999999999972e+01
I_19_5 7.7999999999995822e+01
I_19_6 4.0569837785370571e-12
I_20_0 76
I_20_1 -3.3935354526448691e-13
I_20_2 7.6000000000000355e+01
I_20_3 76
I_20_4 7.0249999670250609e-12
I_20_5 7.5999999999993008e+01
I_20_6 7.0249999670250609e-12
I_21_0 108
I_21_1 54
I_21_2 1.0800000000000001e+02
I_21_3 5.4000000000000014e+01
I_21_4 1.0799999999996126e+02
I_21_5 5.4000000000015078e+01
I_21_6 0
I_22_0 83
I_22_1 -1.8000527617711084e-12
I_22_2 8.3000000000001819e+01
I_22_3 -2.2760682227840334e-12
I_22_4 8.3000000000002245e+01
I_22_5 8.2999999999999744e+01
I_22_6 2.4903135109610730e-12
I_23_0 85
I_23_1 0
I_23_2 85
I_23_3 0
I_23_4 8.5000000000001762e+01
I_23_5 8.4999999999996319e+01
I_23_6 5.0062731737909871e-12
I_24_0 166
I_24_1 83
I_24_2 -2.8421709430404007e-14
I_24_3 1.6599999999999997e+02
I_24_4 8.2999999999999972e+01
I_24_5 1.6600000000000384e+02
I_24_6 8.2999999999997812e+01
I_25_0 192
I_25_1 9.6000000000001464e+01
I_25_2 -4.1609382606111467e-11
I_25_3 192
I_25_4 9.6000000000020847e+01
I_25_5 1.9199999999997547e+02
I_25_6 9.5999999999975472e+01
q_1_0 -4.7989390239422391e-14
q_1_1 2.6000000000000092e+01
q_1_2 1.2999999999999954e+01
q_1_3 -6.6900998629826347e-13
q_1_4 2.6000000000001343e+01
q_1_5 -1.3440255852703586e-12
q_2_0 1.6653345369377348e-15
q_2_1 6.3999999999999993e+01
q_2_2 3.1999999999998629e+01
q_2_3 2.8147056772652246e-12
q_2_4 6.3999999999998906e+01
q_2_5 -7.4651396175795526e-13
q_3_0 0
q_3_1 112
q_3_2 0
q_3_3 1.1199999999998531e+02
q_3_4 56.0000000000147
q_3_5 0
q_4_0 1.7541523789077473e-14
q_4_1 1.2800000000003479e+02
q_4_2 -3.47633033470629e-11
q_4_3 -1.0658141036401503e-14
q_4_4 1.9200000000000006e+02
q_4_5 0
q_5_0 -8.7380103153122946e-13
q_5_1 5.4000000000000881e+01
q_5_2 6.5812852388261868e-12
q_5_3 5.3999999999993435e+01
q_5_4 1.5748735648912771e-11
q_5_5 -9.7070129712051312e-12
q_6_0 0
q_6_1 3.0000000000000004e+01
q_6_2 -3.5527136788005009e-15
q_6_3 2.9999999999999979e+01
q_6_4 1.4999999999999980e+01
q_6_5 6.4059868520871532e-14
q_7_0 0
q_7_1 -6.1577409837809682e-12
q_7_2 8.1000000000012420e+01
q_7_3 0
q_7_4 5.3999999999992440e+01
q_7_5 1.3761475310687969e-12
q_8_0 0
q_8_1 50
q_8_2 2.4999999999999989e+01
q_8_3 2.1760371282653068e-14
q_8_4 4.9999999999999979e+01
q_8_5 2.1760371282653068e-14
q_9_0 0
q_9_1 38
q_9_2 1.9000000000000071e+01
q_9_3 -1.3473944182607056e-13
q_9_4 3.7999999999999517e+01
q_9_5 1.0327152513985776e-12
q_10_0 0
q_10_1 116
q_10_2 58
q_10_3 1.7053025658242404e-13
q_10_4 1.1599999999999983e+02
q_10_5 0
q_11_0 0
q_11_1 -6.1284310959308641e-14
q_11_2 1.0800000000000017e+02
q_11_3 3.6000000000000284e+01
q_11_4 -5.9583421360705667e-12
q_11_5 -1.0471272110507709e-12
q_12_0 0
q_12_1 30
q_12_2 0
q_12_3 30
q_12_4 1.4999999999999535e+01
q_12_5 9.0864468726969960e-13
q_13_0 0
q_13_1 6.9999999999999972e+01
q_13_2 2.1316282072803006e-14
q_13_3 70
q_13_4 3.4999999999998472e+01
q_13_5 3.0879383773227148e-12
q_14_0 -4.7462034302725442e-15
q_14_1 3.6000000000000391e+01
q_14_2 -4.0323300254385686e-13
q_14_3 3.6000000000000014e+01
q_14_4 1.9628410093116189e-12
q_14_5 -4.3037531956276654e-12
q_15_0 0
q_15_1 130
q_15_2 -9.6779030399811686e-14
q_15_3 1.3000000000000020e+02
q_15_4 6.4999999999999730e+01
q_15_5 2.8599345114344032e-13
q_16_0 5.0981441290787188e-13
q_16_1 8.1999999999999545e+01
q_16_2 -8.9173113337892573e-13
q_16_3 8.2000000000000838e+01
q_16_4 -3.6859404417555197e-13
q_16_5 0
q_17_0 4.0186604044478713e-14
q_17_1 -1.7802648244469310e-11
q_17_2 2.4300000000001859e+02
q_17_3 0
q_17_4 162
q_17_5 0
q_18_0 2.8102520310824275e-15
q_18_1 108
q_18_2 2.8102520310824275e-15
q_18_3 108
q_18_4 5.3999999999997662e+01
q_18_5 4.7329712135184630e-12
q_19_0 3.3015257194790593e-14
q_19_1 1.5599999999999994e+02
q_19_2 6.14369666251946e-14
q_19_3 1.5599999999999994e+02
q_19_4 7.7999999999995850e+01
q_19_5 8.2349750648064470e-12
q_20_0 -3.3935354526448691e-13
q_20_1 1.5200000000000068e+02
q_20_2 7.5999999999999645e+01
q_20_3 7.0249999670250609e-12
q_20_4 151.999999999986
q_20_5 1.4016740486904448e-11
q_21_0 0
q_21_1 108
q_21_2 0
q_21_3 1.0799999999996123e+02
q_21_4 5.3833073322681477e-11
q_21_5 -1.5083631955445717e-11
q_22_0 -1.8000527617711084e-12
q_22_1 1.6600000000000364e+02
q_22_2 -4.09505762632989e-12
q_22_3 1.6600000000000452e+02
q_22_4 82.9999999999975
q_22_5 2.7461088958347091e-12
q_23_0 0
q_23_1 170
q_23_2 0
q_23_3 1.7000000000000176e+02
q_23_4 8.4999999999994557e+01
q_23_5 8.6868845450283061e-12
q_24_0 0
q_24_1 1.0714762410657386e-12
q_24_2 249
q_24_3 0
q_24_4 1.6600000000000384e+02
q_24_5 -6.2145844026417763e-12
q_25_0 1.4614975896165561e-12
q_25_1 -4.3044678932346869e-11
q_25_2 2.8800000000004161e+02
q_25_3 2.0850876580880140e-11
q_25_4 1.9199999999995484e+02
q_25_5 0
y_0_0 2.7408630920433552e-16
y_0_1 1
y_0_2 1
y_0_3 1
y_0_4 1
y_0_5 0
y_1_0 -3.6914915568786455e-15
y_1_1 1.0000000000000036e+00
y_1_2 1
y_1_3 -5.1462306638327959e-14
y_1_4 1.0000000000000520e+00
y_1_5 -5.1462306638327959e-14
y_2_0 5.2041704279304213e-17
y_2_1 9.9999999999999978e-01
y_2_2 9.9999999999995692e-01
y_2_3 4.48828990590822e-14
y_2_4 1.0000000000000107e+00
y_2_5 -1.2670420268534599e-14
y_3_0 0
y_3_1 1
y_3_2 0
y_3_3 9.9999999999973743e-01
y_3_4 1
y_3_5 0
y_4_0 2.7408630920433552e-16
y_4_1 1.0000000000002709e+00
y_4_2 -2.4819035715495374e-13
y_4_3 0
y_4_4 1
y_4_5 2.7755575615628914e-17
y_5_0 -3.2363001167823313e-14
y_5_1 1
y_5_2 7.9645170648570114e-14
y_5_3 9.9999999999975209e-01
y_5_4 1.8794527640690777e-13
y_5_5 3.0003777240494856e-14
y_6_0 0
y_6_1 1.0000000000000002e+00
y_6_2 0
y_6_3 9.9999999999999867e-01
y_6_4 9.9999999999999745e-01
y_6_5 1.6653345369377348e-15
y_7_0 0
y_7_1 -1.1429746038515987e-13
y_7_2 1.0000000000001146e+00
y_7_3 0
y_7_4 9.9999999999997080e-01
y_7_5 2.5183785131878926e-14
y_8_0 0
y_8_1 1
y_8_2 9.9999999999999956e-01
y_8_3 4.4408920985006262e-16
y_8_4 9.9999999999999956e-01
y_8_5 4.4408920985006262e-16
y_9_0 0
y_9_1 9.9999999999999978e-01
y_9_2 1.0000000000000036e+00
y_9_3 -3.5388358909926865e-15
y_9_4 9.9999999999997080e-01
y_9_5 2.5183785131878920e-14
y_10_0 0
y_10_1 1
y_10_2 1
y_10_3 0
y_10_4 1
y_10_5 0
y_11_0 0
y_11_1 -1.3287981825982342e-15
y_11_2 1.0000000000000011e+00
y_11_3 1.0000000000000098e+00
y_11_4 -5.5225602740547755e-14
y_11_5 -6.3685168250060542e-14
y_12_0 0
y_12_1 1
y_12_2 0
y_12_3 1
y_12_4 9.9999999999996891e-01
y_12_5 2.9549279689788932e-14
y_13_0 0
y_13_1 9.9999999999999944e-01
y_13_2 0
y_13_3 1
y_13_4 9.9999999999995626e-01
y_13_5 4.4579185583957131e-14
y_14_0 -2.6367796834847468e-16
y_14_1 1.0000000000000107e+00
y_14_2 -7.4801276284119922e-15
y_14_3 0.999999999999974
y_14_4 3.6329849714990667e-14
y_14_5 -6.4115379672102790e-14
y_15_0 0
y_15_1 1
y_15_2 -1.4889081599971028e-15
y_15_3 1.0000000000000016e+00
y_15_4 9.9999999999999734e-01
y_15_5 1.7763568394002505e-15
y_16_0 1.2434497875801753e-14
y_16_1 9.9999999999999412e-01
y_16_2 -7.4801276284119922e-15
y_16_3 1.0000000000000331e+00
y_16_4 6.2311267257086911e-15
y_16_5 0
y_17_0 4.9613091412936683e-16
y_17_1 -1.1429746038515987e-13
y_17_2 1
y_17_3 -1.7839896226945484e-14
y_17_4 9.9999999999987588e-01
y_17_5 1.4361595892202949e-13
y_18_0 5.2041704279304213e-17
y_18_1 1
y_18_2 5.2041704279304213e-17
y_18_3 1
y_18_4 9.9999999999995670e-01
y_18_5 4.43571409790321e-14
y_19_0 4.2327252813834093e-16
y_19_1 9.9999999999999956e-01
y_19_2 4.2327252813834093e-16
y_19_3 9.9999999999999956e-01
y_19_4 9.9999999999994638e-01
y_19_5 5.2012612545346884e-14
y_20_0 -4.4651782271643015e-15
y_20_1 1.0000000000000047e+00
y_20_2 1
y_20_3 9.2434210092435013e-14
y_20_4 0.999999999999908
y_20_5 9.2434210092435013e-14
y_21_0 0
y_21_1 1
y_21_2 0
y_21_3 1
y_21_4 3.5405025419028007e-13
y_21_5 0
y_22_0 -2.1687382671941065e-14
y_22_1 1.0000000000000220e+00
y_22_2 -2.7422508708241367e-14
y_22_3 1.0000000000000271e+00
y_22_4 9.9999999999999689e-01
y_22_5 3.0003777240494856e-14
y_23_0 0
y_23_1 1
y_23_2 0
y_23_3 1.0000000000000207e+00
y_23_4 9.9999999999995670e-01
y_23_5 5.8897331456364554e-14
y_24_0 0
y_24_1 6.4115379672102790e-15
y_24_2 1
y_24_3 0
y_24_4 1.0000000000000235e+00
y_24_5 -2.5958402094516941e-14
y_25_0 1.5223933225172459e-14
y_25_1 -2.1635471192382738e-13
y_25_2 1
y_25_3 7.2046535404268752e-14
y_25_4 0.999999999999837
y_25_5 9.2434210092435013e-14
x_0_1_0 0
x_0_1_1 0
x_0_1_2 1.0192888200144523e-13
x_0_1_3 0
x_0_1_4 0
x_0_1_5 0
x_0_2_0 5.2041704279304213e-17
x_0_2_1 0.999999999999769
x_0_2_2 1.0000000000000828e+00
x_0_2_3 2.3327173526155320e-13
x_0_2_4 1.0000000000000258e+00
x_0_2_5 -2.5340840537069198e-14
x_0_3_0 0
x_0_3_1 1.0000000000002345e+00
x_0_3_2 -8.8817841970012523e-16
x_0_3_3 9.9999999999975675e-01
x_0_3_4 9.9999999999997446e-01
x_0_3_5 2.5118795932144167e-14
x_0_4_0 5.2041704279304213e-17
x_0_4_1 0
x_0_4_2 -1.4432899320127035e-13
x_0_4_3 0
x_0_4_4 0
x_0_4_5 0
x_0_5_0 0
x_0_5_1 0
x_0_5_2 0
x_0_5_3 0
x_0_5_4 0
x_0_5_5 0
x_0_6_0 0
x_0_6_1 0
x_0_6_2 0
x_0_6_3 0
x_0_6_4 0
x_0_6_5 0
x_0_7_0 0
x_0_7_1 0
x_0_7_2 0
x_0_7_3 0
x_0_7_4 0
x_0_7_5 0
x_0_8_0 0
x_0_8_1 0
x_0_8_2 0
x_0_8_3 0
x_0_8_4 0
x_0_8_5 0
x_0_9_0 0
x_0_9_1 0
x_0_9_2 0
x_0_9_3 0
x_0_9_4 0
x_0_9_5 0
x_0_10_0 0
x_0_10_1 8.1046280797636427e-15
x_0_10_2 1
x_0_10_3 0
x_0_10_4 0
x_0_10_5 0
x_0_11_0 0
x_0_11_1 0
x_0_11_2 -5.9958114861924372e-14
x_0_11_3 1.0000000000000115e+00
x_0_11_4 0
x_0_11_5 0
x_0_12_0 0
x_0_12_1 0
x_0_12_2 0
x_0_12_3 0
x_0_12_4 0
x_0_12_5 0
x_0_13_0 0
x_0_13_1 0
x_0_13_2 0
x_0_13_3 0
x_0_13_4 0
x_0_13_5 0
x_0_14_0 0
x_0_14_1 0
x_0_14_2 0
x_0_14_3 0
x_0_14_4 0
x_0_14_5 0
x_0_15_0 0
x_0_15_1 0
x_0_15_2 0
x_0_15_3 0
x_0_15_4 0
x_0_15_5 0
x_0_16_0 0
x_0_16_1 0
x_0_16_2 0
x_0_16_3 0
x_0_16_4 0
x_0_16_5 0
x_0_17_0 0
x_0_17_1 0
x_0_17_2 0
x_0_17_3 0
x_0_17_4 0
x_0_17_5 0
x_0_18_0 0
x_0_18_1 0
x_0_18_2 0
x_0_18_3 0
x_0_18_4 0
x_0_18_5 0
x_0_19_0 0
x_0_19_1 0
x_0_19_2 0
x_0_19_3 0
x_0_19_4 0
x_0_19_5 0
x_0_20_0 0
x_0_20_1 0
x_0_20_2 0
x_0_20_3 0
x_0_20_4 0
x_0_20_5 0
x_0_21_0 0
x_0_21_1 0
x_0_21_2 0
x_0_21_3 0
x_0_21_4 0
x_0_21_5 0
x_0_22_0 0
x_0_22_1 0
x_0_22_2 0
x_0_22_3 0
x_0_22_4 0
x_0_22_5 0
x_0_23_0 0
x_0_23_1 0
x_0_23_2 0
x_0_23_3 0
x_0_23_4 0
x_0_23_5 0
x_0_24_0 0
x_0_24_1 0
x_0_24_2 0
x_0_24_3 0
x_0_24_4 0
x_0_24_5 0
x_0_25_0 0
x_0_25_1 0
x_0_25_2 0
x_0_25_3 0
x_0_25_4 0
x_0_25_5 0
x_1_2_0 0
x_1_2_1 0
x_1_2_2 0
x_1_2_3 0
x_1_2_4 0
x_1_2_5 0
x_1_3_0 0
x_1_3_1 1.0325074129013956e-14
x_1_3_2 -6.61415366920437e-14
x_1_3_3 0
x_1_3_4 0
x_1_3_5 0
x_1_4_0 0
x_1_4_1 0
x_1_4_2 0
x_1_4_3 0
x_1_4_4 0
x_1_4_5 0
x_1_5_0 -6.9388939039072284e-15
x_1_5_1 -1.3850032232198828e-14
x_1_5_2 0
x_1_5_3 -8.3266726846886741e-15
x_1_5_4 0
x_1_5_5 8.8127422026573754e-14
x_1_6_0 0
x_1_6_1 0
x_1_6_2 0
x_1_6_3 0
x_1_6_4 0
x_1_6_5 0
x_1_7_0 0
x_1_7_1 0
x_1_7_2 0
x_1_7_3 0
x_1_7_4 0
x_1_7_5 0
x_1_8_0 -1.1102230246251565e-16
x_1_8_1 1.0000000000001352e+00
x_1_8_2 9.9999999999997713e-01
x_1_8_3 -6.5780714209040525e-15
x_1_8_4 1.0000000000000502e+00
x_1_8_5 -1.9232532233459665e-13
x_1_9_0 0
x_1_9_1 0
x_1_9_2 0
x_1_9_3 0
x_1_9_4 0
x_1_9_5 0
x_1_10_0 0
x_1_10_1 1
x_1_10_2 1
x_1_10_3 -6.3629657098829284e-14
x_1_10_4 1
x_1_10_5 0
x_1_11_0 0
x_1_11_1 3.0420110874729289e-14
x_1_11_2 0
x_1_11_3 0
x_1_11_4 0
x_1_11_5 0
x_1_12_0 0
x_1_12_1 0
x_1_12_2 0
x_1_12_3 0
x_1_12_4 0
x_1_12_5 0
x_1_13_0 0
x_1_13_1 0
x_1_13_2 0
x_1_13_3 0
x_1_13_4 0
x_1_13_5 0
x_1_14_0 0
x_1_14_1 0
x_1_14_2 0
x_1_14_3 0
x_1_14_4 0
x_1_14_5 0
x_1_15_0 0
x_1_15_1 0
x_1_15_2 0
x_1_15_3 0
x_1_15_4 0
x_1_15_5 0
x_1_16_0 0
x_1_16_1 0
x_1_16_2 0
x_1_16_3 0
x_1_16_4 0
x_1_16_5 0
x_1_17_0 0
x_1_17_1 -1.1449174941446927e-13
x_1_17_2 -3.9225567238787562e-14
x_1_17_3 2.7304547511874944e-15
x_1_17_4 0
x_1_17_5 0
x_1_18_0 0
x_1_18_1 0
x_1_18_2 0
x_1_18_3 0
x_1_18_4 0
x_1_18_5 0
x_1_19_0 0
x_1_19_1 0
x_1_19_2 0
x_1_19_3 0
x_1_19_4 0
x_1_19_5 0
x_1_20_0 0
x_1_20_1 0
x_1_20_2 1.7728873924482969e-15
x_1_20_3 0
x_1_20_4 0
x_1_20_5 0
x_1_21_0 0
x_1_21_1 0
x_1_21_2 0
x_1_21_3 0
x_1_21_4 0
x_1_21_5 0
x_1_22_0 0
x_1_22_1 0
x_1_22_2 0
x_1_22_3 0
x_1_22_4 0
x_1_22_5 0
x_1_23_0 0
x_1_23_1 0
x_1_23_2 0
x_1_23_3 0
x_1_23_4 0
x_1_23_5 0
x_1_24_0 0
x_1_24_1 0
x_1_24_2 0
x_1_24_3 0
x_1_24_4 0
x_1_24_5 0
x_1_25_0 0
x_1_25_1 0
x_1_25_2 0
x_1_25_3 0
x_1_25_4 0
x_1_25_5 0
x_2_3_0 0
x_2_3_1 0
x_2_3_2 0
x_2_3_3 0
x_2_3_4 0
x_2_3_5 0
x_2_4_0 2.7408630920433552e-16
x_2_4_1 1.0000000000002718e+00
x_2_4_2 -2.4819035715495374e-13
x_2_4_3 -1.9330370637504757e-13
x_2_4_4 9.9999999999999734e-01
x_2_4_5 2.7755575615628914e-17
x_2_5_0 0
x_2_5_1 0
x_2_5_2 0
x_2_5_3 0
x_2_5_4 0
x_2_5_5 0
x_2_6_0 0
x_2_6_1 0
x_2_6_2 0
x_2_6_3 0
x_2_6_4 0
x_2_6_5 0
x_2_7_0 0
x_2_7_1 0
x_2_7_2 0
x_2_7_3 0
x_2_7_4 0
x_2_7_5 0
x_2_8_0 0
x_2_8_1 0
x_2_8_2 0
x_2_8_3 0
x_2_8_4 0
x_2_8_5 0
x_2_9_0 0
x_2_9_1 0
x_2_9_2 0
x_2_9_3 0
x_2_9_4 0
x_2_9_5 0
x_2_10_0 0
x_2_10_1 0
x_2_10_2 0
x_2_10_3 0
x_2_10_4 0
x_2_10_5 0
x_2_11_0 0
x_2_11_1 -3.6793484925468078e-14
x_2_11_2 1.0000000000001021e+00
x_2_11_3 0
x_2_11_4 0
x_2_11_5 0
x_2_12_0 0
x_2_12_1 0
x_2_12_2 0
x_2_12_3 0
x_2_12_4 0
x_2_12_5 0
x_2_13_0 0
x_2_13_1 0
x_2_13_2 0
x_2_13_3 0
x_2_13_4 0
x_2_13_5 0
x_2_14_0 0
x_2_14_1 0
x_2_14_2 0
x_2_14_3 0
x_2_14_4 0
x_2_14_5 0
x_2_15_0 0
x_2_15_1 0
x_2_15_2 0
x_2_15_3 0
x_2_15_4 0
x_2_15_5 0
x_2_16_0 0
x_2_16_1 0
x_2_16_2 0
x_2_16_3 0
x_2_16_4 0
x_2_16_5 0
x_2_17_0 0
x_2_17_1 0
x_2_17_2 0
x_2_17_3 0
x_2_17_4 0
x_2_17_5 0
x_2_18_0 0
x_2_18_1 0
x_2_18_2 0
x_2_18_3 0
x_2_18_4 0
x_2_18_5 0
x_2_19_0 0
x_2_19_1 0
x_2_19_2 0
x_2_19_3 0
x_2_19_4 0
x_2_19_5 0
x_2_20_0 0
x_2_20_1 0
x_2_20_2 0
x_2_20_3 0
x_2_20_4 0
x_2_20_5 0
x_2_21_0 0
x_2_21_1 0
x_2_21_2 0
x_2_21_3 0
x_2_21_4 0
x_2_21_5 0
x_2_22_0 0
x_2_22_1 0
x_2_22_2 0
x_2_22_3 0
x_2_22_4 0
x_2_22_5 0
x_2_23_0 0
x_2_23_1 0
x_2_23_2 0
x_2_23_3 0
x_2_23_4 0
x_2_23_5 0
x_2_24_0 0
x_2_24_1 0
x_2_24_2 0
x_2_24_3 0
x_2_24_4 0
x_2_24_5 0
x_2_25_0 0
x_2_25_1 0
x_2_25_2 0
x_2_25_3 0
x_2_25_4 0
x_2_25_5 0
x_3_4_0 0
x_3_4_1 0
x_3_4_2 0
x_3_4_3 0
x_3_4_4 1.0732473937347109e-13
x_3_4_5 2.7755575615628914e-17
x_3_5_0 0
x_3_5_1 -2.2817858713608530e-13
x_3_5_2 9.9330266234431974e-14
x_3_5_3 9.9999999999976830e-01
x_3_5_4 1.1147333056626962e-14
x_3_5_5 0
x_3_6_0 0
x_3_6_1 0
x_3_6_2 0
x_3_6_3 0
x_3_6_4 0
x_3_6_5 -2.5118795932144167e-14
x_3_7_0 0
x_3_7_1 0
x_3_7_2 0
x_3_7_3 0
x_3_7_4 0
x_3_7_5 0
x_3_8_0 0
x_3_8_1 0
x_3_8_2 0
x_3_8_3 0
x_3_8_4 0
x_3_8_5 0
x_3_9_0 0
x_3_9_1 0
x_3_9_2 0
x_3_9_3 0
x_3_9_4 0
x_3_9_5 0
x_3_10_0 0
x_3_10_1 9.9999999999999323e-01
x_3_10_2 0
x_3_10_3 0
x_3_10_4 9.9999999999990785e-01
x_3_10_5 0
x_3_11_0 0
x_3_11_1 0
x_3_11_2 0
x_3_11_3 0
x_3_11_4 0
x_3_11_5 0
x_3_12_0 0
x_3_12_1 0
x_3_12_2 0
x_3_12_3 0
x_3_12_4 0
x_3_12_5 0
x_3_13_0 0
x_3_13_1 0
x_3_13_2 0
x_3_13_3 0
x_3_13_4 0
x_3_13_5 0
x_3_14_0 0
x_3_14_1 0
x_3_14_2 0
x_3_14_3 0
x_3_14_4 0
x_3_14_5 0
x_3_15_0 0
x_3_15_1 0
x_3_15_2 0
x_3_15_3 0
x_3_15_4 0
x_3_15_5 0
x_3_16_0 0
x_3_16_1 0
x_3_16_2 0
x_3_16_3 0
x_3_16_4 0
x_3_16_5 0
x_3_17_0 0
x_3_17_1 0
x_3_17_2 0
x_3_17_3 0
x_3_17_4 0
x_3_17_5 0
x_3_18_0 0
x_3_18_1 0
x_3_18_2 0
x_3_18_3 0
x_3_18_4 0
x_3_18_5 0
x_3_19_0 0
x_3_19_1 0
x_3_19_2 0
x_3_19_3 0
x_3_19_4 0
x_3_19_5 0
x_3_20_0 0
x_3_20_1 0
x_3_20_2 0
x_3_20_3 0
x_3_20_4 0
x_3_20_5 0
x_3_21_0 0
x_3_21_1 0
x_3_21_2 0
x_3_21_3 0
x_3_21_4 0
x_3_21_5 0
x_3_22_0 0
x_3_22_1 0
x_3_22_2 0
x_3_22_3 0
x_3_22_4 0
x_3_22_5 0
x_3_23_0 0
x_3_23_1 0
x_3_23_2 0
x_3_23_3 0
x_3_23_4 0
x_3_23_5 0
x_3_24_0 0
x_3_24_1 0
x_3_24_2 0
x_3_24_3 0
x_3_24_4 0
x_3_24_5 0
x_3_25_0 0
x_3_25_1 0
x_3_25_2 0
x_3_25_3 0
x_3_25_4 0
x_3_25_5 0
x_4_5_0 0
x_4_5_1 1.0000000000002416e+00
x_4_5_2 0
x_4_5_3 0
x_4_5_4 0
x_4_5_5 0
x_4_6_0 0
x_4_6_1 2.9531932455029164e-14
x_4_6_2 -1.0746958878371515e-13
x_4_6_3 1.9330370637504757e-13
x_4_6_4 9.9999999999989564e-01
x_4_6_5 0
x_4_7_0 0
x_4_7_1 0
x_4_7_2 0
x_4_7_3 0
x_4_7_4 0
x_4_7_5 0
x_4_8_0 0
x_4_8_1 0
x_4_8_2 0
x_4_8_3 0
x_4_8_4 0
x_4_8_5 0
x_4_9_0 0
x_4_9_1 0
x_4_9_2 0
x_4_9_3 0
x_4_9_4 0
x_4_9_5 0
x_4_10_0 0
x_4_10_1 0
x_4_10_2 0
x_4_10_3 0
x_4_10_4 0
x_4_10_5 0
x_4_11_0 0
x_4_11_1 0
x_4_11_2 0
x_4_11_3 0
x_4_11_4 0
x_4_11_5 0
x_4_12_0 0
x_4_12_1 0
x_4_12_2 0
x_4_12_3 0
x_4_12_4 0
x_4_12_5 0
x_4_13_0 0
x_4_13_1 0
x_4_13_2 0
x_4_13_3 0
x_4_13_4 0
x_4_13_5 0
x_4_14_0 0
x_4_14_1 0
x_4_14_2 0
x_4_14_3 0
x_4_14_4 0
x_4_14_5 0
x_4_15_0 0
x_4_15_1 0
x_4_15_2 0
x_4_15_3 0
x_4_15_4 0
x_4_15_5 0
x_4_16_0 0
x_4_16_1 0
x_4_16_2 0
x_4_16_3 0
x_4_16_4 0
x_4_16_5 0
x_4_17_0 0
x_4_17_1 0
x_4_17_2 0
x_4_17_3 0
x_4_17_4 0
x_4_17_5 0
x_4_18_0 0
x_4_18_1 0
x_4_18_2 0
x_4_18_3 0
x_4_18_4 0
x_4_18_5 0
x_4_19_0 0
x_4_19_1 0
x_4_19_2 0
x_4_19_3 0
x_4_19_4 0
x_4_19_5 0
x_4_20_0 0
x_4_20_1 0
x_4_20_2 0
x_4_20_3 0
x_4_20_4 0
x_4_20_5 0
x_4_21_0 0
x_4_21_1 0
x_4_21_2 0
x_4_21_3 0
x_4_21_4 0
x_4_21_5 0
x_4_22_0 0
x_4_22_1 0
x_4_22_2 0
x_4_22_3 0
x_4_22_4 0
x_4_22_5 0
x_4_23_0 0
x_4_23_1 0
x_4_23_2 0
x_4_23_3 0
x_4_23_4 0
x_4_23_5 0
x_4_24_0 0
x_4_24_1 0
x_4_24_2 0
x_4_24_3 0
x_4_24_4 0
x_4_24_5 0
x_4_25_0 0
x_4_25_1 0
x_4_25_2 0
x_4_25_3 0
x_4_25_4 0
x_4_25_5 0
x_5_6_0 0
x_5_6_1 0
x_5_6_2 7.5051076464660582e-14
x_5_6_3 0
x_5_6_4 0
x_5_6_5 0
x_5_7_0 0
x_5_7_1 0
x_5_7_2 0
x_5_7_3 0
x_5_7_4 0
x_5_7_5 0
x_5_8_0 0
x_5_8_1 0
x_5_8_2 0
x_5_8_3 0
x_5_8_4 0
x_5_8_5 0
x_5_9_0 0
x_5_9_1 0
x_5_9_2 0
x_5_9_3 0
x_5_9_4 0
x_5_9_5 0
x_5_10_0 -4.4408920985006262e-16
x_5_10_1 -1.3322676295501878e-15
x_5_10_2 0
x_5_10_3 -8.8817841970012523e-15
x_5_10_4 9.3081792273963515e-14
x_5_10_5 0
x_5_11_0 0
x_5_11_1 0
x_5_11_2 0
x_5_11_3 0
x_5_11_4 0
x_5_11_5 0
x_5_12_0 0
x_5_12_1 0
x_5_12_2 0
x_5_12_3 0
x_5_12_4 0
x_5_12_5 0
x_5_13_0 0
x_5_13_1 0
x_5_13_2 0
x_5_13_3 0
x_5_13_4 0
x_5_13_5 0
x_5_14_0 0
x_5_14_1 0
x_5_14_2 0
x_5_14_3 0
x_5_14_4 0
x_5_14_5 0
x_5_15_0 0
x_5_15_1 1
x_5_15_2 5.3290705182007514e-15
x_5_15_3 9.9999999999977629e-01
x_5_15_4 1.95215371645574e-13
x_5_15_5 1.7763568394002505e-15
x_5_16_0 0
x_5_16_1 0
x_5_16_2 0
x_5_16_3 0
x_5_16_4 0
x_5_16_5 0
x_5_17_0 0
x_5_17_1 0
x_5_17_2 0
x_5_17_3 0
x_5_17_4 0
x_5_17_5 0
x_5_18_0 0
x_5_18_1 0
x_5_18_2 0
x_5_18_3 0
x_5_18_4 0
x_5_18_5 0
x_5_19_0 -8.7957419125928027e-14
x_5_19_1 0
x_5_19_2 4.2327252813834093e-16
x_5_19_3 2.7589042161935140e-14
x_5_19_4 8.8706819667550008e-14
x_5_19_5 -2.9030597370471867e-14
x_5_20_0 0
x_5_20_1 0
x_5_20_2 0
x_5_20_3 0
x_5_20_4 0
x_5_20_5 0
x_5_21_0 0
x_5_21_1 0
x_5_21_2 0
x_5_21_3 0
x_5_21_4 0
x_5_21_5 0
x_5_22_0 0
x_5_22_1 0
x_5_22_2 0
x_5_22_3 0
x_5_22_4 0
x_5_22_5 0
x_5_23_0 0
x_5_23_1 0
x_5_23_2 0
x_5_23_3 0
x_5_23_4 0
x_5_23_5 0
x_5_24_0 0
x_5_24_1 0
x_5_24_2 0
x_5_24_3 0
x_5_24_4 0
x_5_24_5 0
x_5_25_0 0
x_5_25_1 0
x_5_25_2 0
x_5_25_3 0
x_5_25_4 0
x_5_25_5 0
x_6_7_0 0
x_6_7_1 0
x_6_7_2 0
x_6_7_3 0
x_6_7_4 0
x_6_7_5 0
x_6_8_0 0
x_6_8_1 0
x_6_8_2 0
x_6_8_3 0
x_6_8_4 0
x_6_8_5 0
x_6_9_0 0
x_6_9_1 0
x_6_9_2 0
x_6_9_3 0
x_6_9_4 0
x_6_9_5 0
x_6_10_0 0
x_6_10_1 0
x_6_10_2 0
x_6_10_3 0
x_6_10_4 0
x_6_10_5 0
x_6_11_0 0
x_6_11_1 0
x_6_11_2 0
x_6_11_3 0
x_6_11_4 0
x_6_11_5 0
x_6_12_0 0
x_6_12_1 0
x_6_12_2 0
x_6_12_3 0
x_6_12_4 0
x_6_12_5 0
x_6_13_0 0
x_6_13_1 0
x_6_13_2 0
x_6_13_3 0
x_6_13_4 0
x_6_13_5 0
x_6_14_0 0
x_6_14_1 0
x_6_14_2 0
x_6_14_3 0
x_6_14_4 0
x_6_14_5 0
x_6_15_0 0
x_6_15_1 1
x_6_15_2 2.9920510513647969e-14
x_6_15_3 0.999999999999777
x_6_15_4 9.1914323374631124e-15
x_6_15_5 1.7763568394002505e-15
x_6_16_0 0
x_6_16_1 0
x_6_16_2 0
x_6_16_3 0
x_6_16_4 0
x_6_16_5 0
x_6_17_0 0
x_6_17_1 0
x_6_17_2 0
x_6_17_3 0
x_6_17_4 0
x_6_17_5 0
x_6_18_0 0
x_6_18_1 0
x_6_18_2 0
x_6_18_3 0
x_6_18_4 0
x_6_18_5 0
x_6_19_0 0
x_6_19_1 0
x_6_19_2 0
x_6_19_3 0
x_6_19_4 0
x_6_19_5 0
x_6_20_0 0
x_6_20_1 0
x_6_20_2 0
x_6_20_3 0
x_6_20_4 0
x_6_20_5 0
x_6_21_0 0
x_6_21_1 0
x_6_21_2 0
x_6_21_3 0
x_6_21_4 0
x_6_21_5 0
x_6_22_0 0
x_6_22_1 1.0000000000000002e+00
x_6_22_2 2.2204460492503131e-15
x_6_22_3 9.9999999999999689e-01
x_6_22_4 1.0000000000000242e+00
x_6_22_5 3.0003777240494856e-14
x_6_23_0 0
x_6_23_1 0
x_6_23_2 0
x_6_23_3 0
x_6_23_4 0
x_6_23_5 0
x_6_24_0 0
x_6_24_1 0
x_6_24_2 0
x_6_24_3 0
x_6_24_4 0
x_6_24_5 0
x_6_25_0 0
x_6_25_1 0
x_6_25_2 0
x_6_25_3 0
x_6_25_4 0
x_6_25_5 0
x_7_8_0 0
x_7_8_1 0
x_7_8_2 0
x_7_8_3 0
x_7_8_4 1.0139805661779633e-13
x_7_8_5 0
x_7_9_0 0
x_7_9_1 -2.2859492077031973e-13
x_7_9_2 1.1003697952816083e-13
x_7_9_3 0
x_7_9_4 9.9999999999992117e-01
x_7_9_5 -1.7386092565629951e-13
x_7_10_0 0
x_7_10_1 0
x_7_10_2 0
x_7_10_3 0
x_7_10_4 0
x_7_10_5 0
x_7_11_0 0
x_7_11_1 0
x_7_11_2 9.9999999999996181e-01
x_7_11_3 0
x_7_11_4 -4.6421200217139358e-15
x_7_11_5 -6.3685168250060542e-14
x_7_12_0 0
x_7_12_1 0
x_7_12_2 0
x_7_12_3 0
x_7_12_4 0
x_7_12_5 0
x_7_13_0 0
x_7_13_1 0
x_7_13_2 0
x_7_13_3 0
x_7_13_4 0
x_7_13_5 0
x_7_14_0 0
x_7_14_1 0
x_7_14_2 0
x_7_14_3 0
x_7_14_4 0
x_7_14_5 0
x_7_15_0 0
x_7_15_1 0
x_7_15_2 0
x_7_15_3 0
x_7_15_4 0
x_7_15_5 0
x_7_16_0 0
x_7_16_1 0
x_7_16_2 0
x_7_16_3 0
x_7_16_4 0
x_7_16_5 0
x_7_17_0 0
x_7_17_1 0
x_7_17_2 1.0000000000000726e+00
x_7_17_3 0
x_7_17_4 1.0000000000000173e+00
x_7_17_5 2.87231917844059e-13
x_7_18_0 0
x_7_18_1 0
x_7_18_2 0
x_7_18_3 0
x_7_18_4 0
x_7_18_5 0
x_7_19_0 0
x_7_19_1 0
x_7_19_2 0
x_7_19_3 0
x_7_19_4 0
x_7_19_5 0
x_7_20_0 0
x_7_20_1 0
x_7_20_2 0
x_7_20_3 0
x_7_20_4 0
x_7_20_5 0
x_7_21_0 0
x_7_21_1 0
x_7_21_2 0
x_7_21_3 0
x_7_21_4 0
x_7_21_5 0
x_7_22_0 0
x_7_22_1 0
x_7_22_2 0
x_7_22_3 0
x_7_22_4 0
x_7_22_5 0
x_7_23_0 0
x_7_23_1 0
x_7_23_2 0
x_7_23_3 0
x_7_23_4 0
x_7_23_5 0
x_7_24_0 0
x_7_24_1 0
x_7_24_2 0
x_7_24_3 0
x_7_24_4 0
x_7_24_5 0
x_7_25_0 0
x_7_25_1 0
x_7_25_2 0
x_7_25_3 0
x_7_25_4 0
x_7_25_5 0
x_8_9_0 0
x_8_9_1 -1.1289580381657061e-13
x_8_9_2 0
x_8_9_3 0
x_8_9_4 1.0189765697887765e-13
x_8_9_5 1.4125320261713472e-13
x_8_10_0 0
x_8_10_1 0
x_8_10_2 0
x_8_10_3 0
x_8_10_4 0
x_8_10_5 0
x_8_11_0 0
x_8_11_1 0
x_8_11_2 0
x_8_11_3 0
x_8_11_4 0
x_8_11_5 0
x_8_12_0 0
x_8_12_1 0
x_8_12_2 0
x_8_12_3 0
x_8_12_4 0
x_8_12_5 0
x_8_13_0 0
x_8_13_1 0
x_8_13_2 0
x_8_13_3 0
x_8_13_4 0
x_8_13_5 0
x_8_14_0 0
x_8_14_1 0
x_8_14_2 0
x_8_14_3 0
x_8_14_4 0
x_8_14_5 0
x_8_15_0 0
x_8_15_1 0
x_8_15_2 0
x_8_15_3 0
x_8_15_4 0
x_8_15_5 0
x_8_16_0 0
x_8_16_1 0
x_8_16_2 0
x_8_16_3 0
x_8_16_4 0
x_8_16_5 0
x_8_17_0 0
x_8_17_1 -1.1429746038515987e-13
x_8_17_2 0
x_8_17_3 1.2212453270876722e-15
x_8_17_4 9.9999999999973221e-01
x_8_17_5 0
x_8_18_0 0
x_8_18_1 0
x_8_18_2 0
x_8_18_3 0
x_8_18_4 0
x_8_18_5 0
x_8_19_0 0
x_8_19_1 0
x_8_19_2 0
x_8_19_3 0
x_8_19_4 0
x_8_19_5 0
x_8_20_0 -4.2882364326146671e-15
x_8_20_1 0.99999999999987
x_8_20_2 8.2434059578417873e-14
x_8_20_3 9.6585933695436665e-14
x_8_20_4 -3.4814291300607296e-14
x_8_20_5 2.1530693894433739e-13
x_8_21_0 0
x_8_21_1 0
x_8_21_2 0
x_8_21_3 0
x_8_21_4 0
x_8_21_5 0
x_8_22_0 0
x_8_22_1 0
x_8_22_2 0
x_8_22_3 0
x_8_22_4 0
x_8_22_5 0
x_8_23_0 0
x_8_23_1 2.2455648451824572e-13
x_8_23_2 2.2152418788223827e-14
x_8_23_3 -6.59923504731097e-14
x_8_23_4 0
x_8_23_5 -1.6305867671016318e-13
x_8_24_0 0
x_8_24_1 0
x_8_24_2 0
x_8_24_3 0
x_8_24_4 0
x_8_24_5 0
x_8_25_0 4.5102810375396984e-15
x_8_25_1 0
x_8_25_2 9.9999999999991851e-01
x_8_25_3 0
x_8_25_4 -2.0848745103331186e-14
x_8_25_5 0
x_9_10_0 0
x_9_10_1 0
x_9_10_2 0
x_9_10_3 0
x_9_10_4 0
x_9_10_5 0
x_9_11_0 0
x_9_11_1 0
x_9_11_2 0
x_9_11_3 0
x_9_11_4 0
x_9_11_5 0
x_9_12_0 0
x_9_12_1 1
x_9_12_2 0
x_9_12_3 -1.7624790515924360e-15
x_9_12_4 9.9999999999996869e-01
x_9_12_5 8.3627549329889916e-14
x_9_13_0 0
x_9_13_1 0
x_9_13_2 0
x_9_13_3 0
x_9_13_4 0
x_9_13_5 0
x_9_14_0 0
x_9_14_1 0
x_9_14_2 0
x_9_14_3 0
x_9_14_4 0
x_9_14_5 0
x_9_15_0 0
x_9_15_1 0
x_9_15_2 0
x_9_15_3 0
x_9_15_4 0
x_9_15_5 0
x_9_16_0 0
x_9_16_1 0
x_9_16_2 0
x_9_16_3 -1.9879931034694209e-14
x_9_16_4 0
x_9_16_5 0
x_9_17_0 9.9226182825873366e-16
x_9_17_1 0
x_9_17_2 9.9999999999991940e-01
x_9_17_3 2.3342439092743916e-14
x_9_17_4 0
x_9_17_5 0
x_9_18_0 0
x_9_18_1 0
x_9_18_2 0
x_9_18_3 0
x_9_18_4 0
x_9_18_5 0
x_9_19_0 0
x_9_19_1 0
x_9_19_2 0
x_9_19_3 0
x_9_19_4 0
x_9_19_5 0
x_9_20_0 7.8409501114151681e-16
x_9_20_1 1.0000000000003393e+00
x_9_20_2 -2.1239954239860026e-14
x_9_20_3 -6.54684639833647e-15
x_9_20_4 -9.15747936845281e-15
x_9_20_5 0
x_9_21_0 0
x_9_21_1 0
x_9_21_2 0
x_9_21_3 0
x_9_21_4 0
x_9_21_5 0
x_9_22_0 0
x_9_22_1 0
x_9_22_2 0
x_9_22_3 0
x_9_22_4 0
x_9_22_5 0
x_9_23_0 0
x_9_23_1 0
x_9_23_2 0
x_9_23_3 0
x_9_23_4 0
x_9_23_5 0
x_9_24_0 0
x_9_24_1 0
x_9_24_2 9.9999999999999989e-01
x_9_24_3 0
x_9_24_4 -3.6470826358936392e-14
x_9_24_5 0
x_9_25_0 0
x_9_25_1 0
x_9_25_2 0
x_9_25_3 0
x_9_25_4 0
x_9_25_5 0
x_10_11_0 0
x_10_11_1 0
x_10_11_2 0
x_10_11_3 3.8753722453321870e-14
x_10_11_4 0
x_10_11_5 0
x_10_12_0 0
x_10_12_1 0
x_10_12_2 0
x_10_12_3 0
x_10_12_4 0
x_10_12_5 0
x_10_13_0 0
x_10_13_1 0
x_10_13_2 0
x_10_13_3 0
x_10_13_4 0
x_10_13_5 0
x_10_14_0 0
x_10_14_1 0
x_10_14_2 0
x_10_14_3 0
x_10_14_4 0
x_10_14_5 0
x_10_15_0 0
x_10_15_1 0
x_10_15_2 0
x_10_15_3 0
x_10_15_4 0
x_10_15_5 0
x_10_16_0 0
x_10_16_1 0
x_10_16_2 0
x_10_16_3 0
x_10_16_4 0
x_10_16_5 0
x_10_17_0 0
x_10_17_1 0
x_10_17_2 0
x_10_17_3 1.0063998245879446e-14
x_10_17_4 0
x_10_17_5 0
x_10_18_0 0
x_10_18_1 0
x_10_18_2 0
x_10_18_3 0
x_10_18_4 0
x_10_18_5 0
x_10_19_0 0
x_10_19_1 0
x_10_19_2 0
x_10_19_3 0
x_10_19_4 0
x_10_19_5 0
x_10_20_0 0
x_10_20_1 0
x_10_20_2 0
x_10_20_3 0
x_10_20_4 0
x_10_20_5 0
x_10_21_0 0
x_10_21_1 0
x_10_21_2 0
x_10_21_3 0
x_10_21_4 0
x_10_21_5 0
x_10_22_0 0
x_10_22_1 0
x_10_22_2 0
x_10_22_3 0
x_10_22_4 0
x_10_22_5 0
x_10_23_0 0
x_10_23_1 0
x_10_23_2 0
x_10_23_3 0
x_10_23_4 0
x_10_23_5 0
x_10_24_0 0
x_10_24_1 0
x_10_24_2 0
x_10_24_3 0
x_10_24_4 0
x_10_24_5 0
x_10_25_0 0
x_10_25_1 0
x_10_25_2 0
x_10_25_3 0
x_10_25_4 0
x_10_25_5 0
x_11_12_0 0
x_11_12_1 -1.3287981825982342e-15
x_11_12_2 0
x_11_12_3 1.0000000000000098e+00
x_11_12_4 -4.6421200217139358e-15
x_11_12_5 -6.41292574599106e-14
x_11_13_0 0
x_11_13_1 0
x_11_13_2 0
x_11_13_3 0
x_11_13_4 0
x_11_13_5 0
x_11_14_0 0
x_11_14_1 0
x_11_14_2 0
x_11_14_3 0
x_11_14_4 0
x_11_14_5 0
x_11_15_0 0
x_11_15_1 0
x_11_15_2 0
x_11_15_3 0
x_11_15_4 0
x_11_15_5 0
x_11_16_0 0
x_11_16_1 0
x_11_16_2 0
x_11_16_3 0
x_11_16_4 0
x_11_16_5 0
x_11_17_0 0
x_11_17_1 0
x_11_17_2 0
x_11_17_3 -8.6597395920762210e-15
x_11_17_4 0
x_11_17_5 0
x_11_18_0 0
x_11_18_1 0
x_11_18_2 0
x_11_18_3 0
x_11_18_4 0
x_11_18_5 0
x_11_19_0 0
x_11_19_1 0
x_11_19_2 0
x_11_19_3 0
x_11_19_4 0
x_11_19_5 0
x_11_20_0 0
x_11_20_1 0
x_11_20_2 0
x_11_20_3 0
x_11_20_4 0
x_11_20_5 0
x_11_21_0 0
x_11_21_1 0
x_11_21_2 0
x_11_21_3 0
x_11_21_4 0
x_11_21_5 0
x_11_22_0 0
x_11_22_1 0
x_11_22_2 0
x_11_22_3 0
x_11_22_4 0
x_11_22_5 0
x_11_23_0 0
x_11_23_1 0
x_11_23_2 0
x_11_23_3 0
x_11_23_4 0
x_11_23_5 0
x_11_24_0 0
x_11_24_1 0
x_11_24_2 0
x_11_24_3 0
x_11_24_4 0
x_11_24_5 0
x_11_25_0 0
x_11_25_1 0
x_11_25_2 0
x_11_25_3 0
x_11_25_4 0
x_11_25_5 0
x_12_13_0 0
x_12_13_1 0
x_12_13_2 0
x_12_13_3 0
x_12_13_4 0
x_12_13_5 0
x_12_14_0 0
x_12_14_1 0
x_12_14_2 0
x_12_14_3 0
x_12_14_4 0
x_12_14_5 0
x_12_15_0 0
x_12_15_1 0
x_12_15_2 0
x_12_15_3 0
x_12_15_4 0
x_12_15_5 0
x_12_16_0 0
x_12_16_1 1.0000000000000460e+00
x_12_16_2 0
x_12_16_3 1.0000000000000082e+00
x_12_16_4 -8.1785272998402547e-14
x_12_16_5 0
x_12_17_0 0
x_12_17_1 0
x_12_17_2 0
x_12_17_3 0
x_12_17_4 0
x_12_17_5 0
x_12_18_0 0
x_12_18_1 0
x_12_18_2 0
x_12_18_3 0
x_12_18_4 0
x_12_18_5 0
x_12_19_0 0
x_12_19_1 0
x_12_19_2 0
x_12_19_3 0
x_12_19_4 0
x_12_19_5 0
x_12_20_0 0
x_12_20_1 0
x_12_20_2 0
x_12_20_3 0
x_12_20_4 0
x_12_20_5 0
x_12_21_0 0
x_12_21_1 0
x_12_21_2 0
x_12_21_3 0
x_12_21_4 0
x_12_21_5 0
x_12_22_0 0
x_12_22_1 0
x_12_22_2 0
x_12_22_3 0
x_12_22_4 0
x_12_22_5 0
x_12_23_0 0
x_12_23_1 0
x_12_23_2 0
x_12_23_3 0
x_12_23_4 0
x_12_23_5 0
x_12_24_0 0
x_12_24_1 -7.4940054162198066e-16
x_12_24_2 0
x_12_24_3 0
x_12_24_4 1.0000000000000537e+00
x_12_24_5 4.0321912475604904e-14
x_12_25_0 0
x_12_25_1 0
x_12_25_2 0
x_12_25_3 0
x_12_25_4 0
x_12_25_5 0
x_13_14_0 0
x_13_14_1 0
x_13_14_2 0
x_13_14_3 0
x_13_14_4 0
x_13_14_5 0
x_13_15_0 0
x_13_15_1 0
x_13_15_2 0
x_13_15_3 2.4900914663561480e-13
x_13_15_4 9.9999999999983480e-01
x_13_15_5 0
x_13_16_0 0
x_13_16_1 0
x_13_16_2 0
x_13_16_3 0
x_13_16_4 0
x_13_16_5 0
x_13_17_0 0
x_13_17_1 0
x_13_17_2 0
x_13_17_3 0
x_13_17_4 0
x_13_17_5 0
x_13_18_0 4.1633363423443370e-17
x_13_18_1 8.5695339713254270e-16
x_13_18_2 -2.90878432451791e-14
x_13_18_3 -2.5826563110342704e-14
x_13_18_4 0
x_13_18_5 6.1228799808077383e-14
x_13_19_0 5.5379312247083590e-14
x_13_19_1 1.0000000000000007e+00
x_13_19_2 0
x_13_19_3 9.9999999999994360e-01
x_13_19_4 1.0000000000000391e+00
x_13_19_5 5.6624843702834937e-14
x_13_20_0 0
x_13_20_1 0
x_13_20_2 0
x_13_20_3 0
x_13_20_4 0
x_13_20_5 0
x_13_21_0 0
x_13_21_1 0
x_13_21_2 0
x_13_21_3 0
x_13_21_4 0
x_13_21_5 0
x_13_22_0 -3.2363001167823313e-14
x_13_22_1 1
x_13_22_2 2.9393154576951019e-14
x_13_22_3 9.9999999999977629e-01
x_13_22_4 8.9346932630185449e-15
x_13_22_5 3.0003777240494856e-14
x_13_23_0 0
x_13_23_1 0
x_13_23_2 0
x_13_23_3 0
x_13_23_4 0
x_13_23_5 0
x_13_24_0 0
x_13_24_1 0
x_13_24_2 0
x_13_24_3 0
x_13_24_4 0
x_13_24_5 0
x_13_25_0 0
x_13_25_1 0
x_13_25_2 0
x_13_25_3 0
x_13_25_4 0
x_13_25_5 0
x_14_15_0 0
x_14_15_1 0
x_14_15_2 0
x_14_15_3 0
x_14_15_4 0
x_14_15_5 0
x_14_16_0 1.1102230246251565e-14
x_14_16_1 1.0000000000000107e+00
x_14_16_2 -7.2580830234869609e-15
x_14_16_3 9.9999999999999445e-01
x_14_16_4 8.4349194295896268e-14
x_14_16_5 0
x_14_17_0 0
x_14_17_1 0
x_14_17_2 0
x_14_17_3 0
x_14_17_4 0
x_14_17_5 0
x_14_18_0 0
x_14_18_1 0
x_14_18_2 0
x_14_18_3 0
x_14_18_4 0
x_14_18_5 0
x_14_19_0 0
x_14_19_1 0
x_14_19_2 0
x_14_19_3 0
x_14_19_4 0
x_14_19_5 0
x_14_20_0 -1.0595690991266338e-14
x_14_20_1 0
x_14_20_2 0
x_14_20_3 0
x_14_20_4 0
x_14_20_5 0
x_14_21_0 4.4408920985006262e-16
x_14_21_1 0
x_14_21_2 0
x_14_21_3 3.3306690738754696e-16
x_14_21_4 0
x_14_21_5 0
x_14_22_0 0
x_14_22_1 0
x_14_22_2 0
x_14_22_3 0
x_14_22_4 0
x_14_22_5 0
x_14_23_0 -4.1425196606326153e-15
x_14_23_1 1.0000000000000115e+00
x_14_23_2 -1.6431300764452317e-14
x_14_23_3 1.0000000000000027e+00
x_14_23_4 -1.2258917846904321e-14
x_14_23_5 -6.4115379672102790e-14
x_14_24_0 0
x_14_24_1 0
x_14_24_2 0
x_14_24_3 0
x_14_24_4 0
x_14_24_5 -6.4115379672102790e-14
x_14_25_0 0
x_14_25_1 0
x_14_25_2 7.97695243193175e-14
x_14_25_3 -2.0768109454394335e-14
x_14_25_4 0
x_14_25_5 0
x_15_16_0 0
x_15_16_1 0
x_15_16_2 0
x_15_16_3 0
x_15_16_4 0
x_15_16_5 0
x_15_17_0 0
x_15_17_1 0
x_15_17_2 0
x_15_17_3 0
x_15_17_4 0
x_15_17_5 0
x_15_18_0 0
x_15_18_1 0
x_15_18_2 0
x_15_18_3 0
x_15_18_4 0
x_15_18_5 0
x_15_19_0 0
x_15_19_1 0
x_15_19_2 0
x_15_19_3 0
x_15_19_4 0
x_15_19_5 0
x_15_20_0 0
x_15_20_1 0
x_15_20_2 0
x_15_20_3 0
x_15_20_4 0
x_15_20_5 0
x_15_21_0 0
x_15_21_1 0
x_15_21_2 0
x_15_21_3 0
x_15_21_4 0
x_15_21_5 0
x_15_22_0 0
x_15_22_1 2.9531932455029164e-14
x_15_22_2 -2.7089441800853820e-14
x_15_22_3 2.4978630275285241e-13
x_15_22_4 9.9999999999996170e-01
x_15_22_5 0
x_15_23_0 0
x_15_23_1 0
x_15_23_2 0
x_15_23_3 0
x_15_23_4 0
x_15_23_5 0
x_15_24_0 0
x_15_24_1 0
x_15_24_2 0
x_15_24_3 0
x_15_24_4 0
x_15_24_5 0
x_15_25_0 0
x_15_25_1 0
x_15_25_2 0
x_15_25_3 0
x_15_25_4 0
x_15_25_5 0
x_16_17_0 0
x_16_17_1 0
x_16_17_2 0
x_16_17_3 0
x_16_17_4 0
x_16_17_5 0
x_16_18_0 0
x_16_18_1 0
x_16_18_2 0
x_16_18_3 0
x_16_18_4 0
x_16_18_5 0
x_16_19_0 0
x_16_19_1 0
x_16_19_2 0
x_16_19_3 0
x_16_19_4 0
x_16_19_5 0
x_16_20_0 0
x_16_20_1 0
x_16_20_2 0
x_16_20_3 2.0990154059319366e-14
x_16_20_4 0
x_16_20_5 0
x_16_21_0 0
x_16_21_1 0
x_16_21_2 0
x_16_21_3 0
x_16_21_4 0
x_16_21_5 0
x_16_22_0 0
x_16_22_1 0
x_16_22_2 0
x_16_22_3 0
x_16_22_4 0
x_16_22_5 0
x_16_23_0 0
x_16_23_1 0
x_16_23_2 0
x_16_23_3 0
x_16_23_4 0
x_16_23_5 0
x_16_24_0 1.3322676295501878e-14
x_16_24_1 -6.1770033532582147e-14
x_16_24_2 -7.4801276284119922e-15
x_16_24_3 0
x_16_24_4 8.19830314746639e-15
x_16_24_5 0
x_16_25_0 0
x_16_25_1 0
x_16_25_2 0
x_16_25_3 0
x_16_25_4 0
x_16_25_5 0
x_17_18_0 0
x_17_18_1 0
x_17_18_2 0
x_17_18_3 0
x_17_18_4 0
x_17_18_5 0
x_17_19_0 0
x_17_19_1 0
x_17_19_2 0
x_17_19_3 0
x_17_19_4 0
x_17_19_5 0
x_17_20_0 0
x_17_20_1 0
x_17_20_2 4.6018744370712739e-14
x_17_20_3 0
x_17_20_4 0
x_17_20_5 0
x_17_21_0 0
x_17_21_1 0
x_17_21_2 0
x_17_21_3 0
x_17_21_4 0
x_17_21_5 0
x_17_22_0 0
x_17_22_1 0
x_17_22_2 0
x_17_22_3 0
x_17_22_4 0
x_17_22_5 0
x_17_23_0 0
x_17_23_1 0
x_17_23_2 0
x_17_23_3 0
x_17_23_4 0
x_17_23_5 0
x_17_24_0 0
x_17_24_1 0
x_17_24_2 0
x_17_24_3 0
x_17_24_4 0
x_17_24_5 0
x_17_25_0 0
x_17_25_1 0
x_17_25_2 0
x_17_25_3 0
x_17_25_4 0
x_17_25_5 0
x_18_19_0 -6.9805272673306717e-15
x_18_19_1 1.0000000000000218e+00
x_18_19_2 4.2327252813834093e-16
x_18_19_3 9.9999999999969713e-01
x_18_19_4 9.9999999999981615e-01
x_18_19_5 -1.4953316362920077e-15
x_18_20_0 0
x_18_20_1 0
x_18_20_2 0
x_18_20_3 0
x_18_20_4 0
x_18_20_5 0
x_18_21_0 0
x_18_21_1 1
x_18_21_2 0
x_18_21_3 1
x_18_21_4 0
x_18_21_5 0
x_18_22_0 0
x_18_22_1 0
x_18_22_2 0
x_18_22_3 0
x_18_22_4 0
x_18_22_5 0
x_18_23_0 -1.8041124150158794e-16
x_18_23_1 -2.1701390684469857e-14
x_18_23_2 5.2041704279304213e-17
x_18_23_3 3.35755728775311e-13
x_18_23_4 9.9999999999971889e-01
x_18_23_5 5.8897331456364554e-14
x_18_24_0 0
x_18_24_1 0
x_18_24_2 0
x_18_24_3 0
x_18_24_4 0
x_18_24_5 0
x_18_25_0 0
x_18_25_1 0
x_18_25_2 0
x_18_25_3 0
x_18_25_4 0
x_18_25_5 0
x_19_20_0 0
x_19_20_1 0
x_19_20_2 0
x_19_20_3 0
x_19_20_4 0
x_19_20_5 0
x_19_21_0 0
x_19_21_1 0
x_19_21_2 0
x_19_21_3 0
x_19_21_4 0
x_19_21_5 0
x_19_22_0 3.2612801348363973e-14
x_19_22_1 0
x_19_22_2 0
x_19_22_3 0
x_19_22_4 0
x_19_22_5 0
x_19_23_0 9.7283292532779342e-15
x_19_23_1 -4.85722573273506e-16
x_19_23_2 0
x_19_23_3 3.0222352398467933e-13
x_19_23_4 0
x_19_23_5 0
x_19_24_0 0
x_19_24_1 0
x_19_24_2 0
x_19_24_3 0
x_19_24_4 0
x_19_24_5 0
x_19_25_0 0
x_19_25_1 0
x_19_25_2 0
x_19_25_3 0
x_19_25_4 0
x_19_25_5 0
x_20_21_0 0
x_20_21_1 0
x_20_21_2 0
x_20_21_3 0
x_20_21_4 0
x_20_21_5 0
x_20_22_0 0
x_20_22_1 0
x_20_22_2 0
x_20_22_3 0
x_20_22_4 0
x_20_22_5 0
x_20_23_0 0
x_20_23_1 0
x_20_23_2 0
x_20_23_3 0
x_20_23_4 0
x_20_23_5 0
x_20_24_0 -1.3100631690576847e-14
x_20_24_1 1.7444379274422772e-14
x_20_24_2 9.9999999999998290e-01
x_20_24_3 0
x_20_24_4 1.0000000000000207e+00
x_20_24_5 -2.5514312884666879e-14
x_20_25_0 1.8388068845354155e-14
x_20_25_1 -2.1635471192382738e-13
x_20_25_2 1
x_20_25_3 7.2046535404268752e-14
x_20_25_4 9.9999999999983435e-01
x_20_25_5 -5.10702591327572e-15
x_21_22_0 0
x_21_22_1 0
x_21_22_2 0
x_21_22_3 0
x_21_22_4 0
x_21_22_5 0
x_21_23_0 0
x_21_23_1 1
x_21_23_2 0
x_21_23_3 9.9999999999999911e-01
x_21_23_4 0
x_21_23_5 0
x_21_24_0 0
x_21_24_1 0
x_21_24_2 0
x_21_24_3 0
x_21_24_4 0
x_21_24_5 0
x_21_25_0 0
x_21_25_1 0
x_21_25_2 0
x_21_25_3 0
x_21_25_4 0
x_21_25_5 0
x_22_23_0 0
x_22_23_1 0
x_22_23_2 0
x_22_23_3 0
x_22_23_4 0
x_22_23_5 0
x_22_24_0 0
x_22_24_1 0
x_22_24_2 0
x_22_24_3 0
x_22_24_4 0
x_22_24_5 0
x_22_25_0 0
x_22_25_1 0
x_22_25_2 0
x_22_25_3 0
x_22_25_4 0
x_22_25_5 0
x_23_24_0 0
x_23_24_1 0
x_23_24_2 0
x_23_24_3 0
x_23_24_4 0
x_23_24_5 0
x_23_25_0 6.8486882831564344e-15
x_23_25_1 -2.1588286713836169e-13
x_23_25_2 0
x_23_25_3 -4.6629367034256575e-15
x_23_25_4 9.9999999999985878e-01
x_23_25_5 -5.10702591327572e-15
x_24_25_0 0
x_24_25_1 0
x_24_25_2 0
x_24_25_3 0
x_24_25_4 0
x_24_25_5 0
